0_instance_selection/optil_deployment/lite/public/vc-lite_003.gr
p td 190 377
1 2
1 3
1 4
1 5
4 6
4 7
4 3
8 9
8 10
8 11
8 12
10 13
10 9
10 14
15 16
15 17
15 18
15 19
19 20
19 17
19 21
22 23
22 24
22 25
22 26
23 27
23 28
23 26
29 30
29 31
29 32
29 9
31 32
31 33
31 34
35 36
35 37
35 38
35 39
38 40
38 24
38 39
41 42
41 12
41 43
41 44
43 12
45 46
45 47
45 48
45 49
46 50
46 51
46 47
52 53
52 54
52 55
52 56
53 57
53 55
53 58
20 59
20 60
20 21
61 62
61 63
61 64
61 65
64 66
64 25
64 65
67 68
67 69
67 70
67 71
71 70
71 72
71 73
74 75
74 49
74 5
74 76
75 5
75 77
75 78
27 79
27 28
27 80
28 81
28 82
83 84
83 85
83 26
83 86
86 26
86 87
86 88
89 90
89 91
89 92
89 93
93 94
93 92
93 95
2 13
2 96
2 5
13 96
13 14
59 50
59 97
59 60
97 50
97 98
97 99
33 100
33 101
33 34
101 100
101 102
101 103
104 105
104 106
104 91
104 57
57 105
57 58
107 108
107 109
107 110
107 111
108 112
108 82
108 110
70 113
70 114
115 79
115 54
115 116
115 117
54 79
54 56
87 30
87 118
87 88
12 11
119 120
119 63
119 121
119 34
120 122
120 123
120 121
124 125
124 126
124 127
124 128
126 127
126 129
126 130
131 132
131 133
131 134
131 135
134 136
134 132
134 137
110 138
110 139
80 79
80 140
80 62
62 140
62 63
141 125
141 142
141 143
141 112
125 128
125 142
144 145
144 72
144 66
144 39
72 66
72 73
66 25
113 146
113 114
113 147
114 148
114 149
150 151
150 16
150 152
150 106
151 153
151 152
151 133
100 154
100 111
154 152
154 69
154 111
40 24
40 103
40 143
24 25
155 21
155 156
155 55
155 77
77 21
77 78
106 16
106 91
6 157
6 7
6 116
98 158
98 99
98 127
127 158
143 112
143 103
11 159
11 160
147 3
147 146
147 148
3 148
85 84
85 161
85 162
163 164
163 165
163 130
163 166
164 167
164 168
164 165
48 169
48 49
48 170
170 169
170 137
170 165
142 171
142 153
171 169
171 153
171 44
136 172
136 137
136 173
172 174
172 173
172 175
37 36
37 176
176 105
176 36
176 95
55 156
168 177
168 140
168 167
118 178
118 30
118 166
178 47
178 166
178 81
58 102
58 129
132 51
132 179
180 14
180 138
180 92
180 167
92 14
129 102
129 130
130 166
111 109
90 60
90 91
90 162
50 51
96 17
96 181
7 76
7 181
137 165
65 122
65 182
88 183
88 175
158 128
158 184
99 185
99 186
185 121
185 186
185 187
152 69
103 102
167 138
95 94
95 105
94 173
94 32
157 146
157 116
157 184
146 184
51 179
117 174
117 116
117 179
179 174
34 63
128 184
153 133
133 135
73 188
73 78
78 188
16 18
139 138
139 123
139 189
47 81
148 149
149 109
149 160
18 182
18 190
135 84
135 177
177 84
177 140
112 82
145 39
145 186
145 42
17 181
81 82
186 42
49 76
169 44
30 9
159 161
159 160
159 190
160 109
44 42
76 181
60 162
161 162
161 190
190 182
188 187
188 183
68 69
68 156
68 189
123 122
123 189
189 156
175 174
175 183
187 183
187 121
182 122
173 32
