0_instance_selection/optil_deployment/lite/optil/public/vc-lite_003.out
s vc 190 126
1
3
5
6
7
8
9
12
13
14
15
17
18
20
21
22
23
25
27
30
31
32
34
35
37
38
40
41
44
45
46
49
51
52
54
55
57
58
59
61
63
64
67
69
70
72
73
75
76
77
80
81
82
83
84
86
87
89
90
93
95
96
97
98
100
101
103
104
106
107
110
111
112
114
115
116
120
121
122
124
127
128
129
130
131
133
134
136
139
140
141
142
144
145
146
147
149
150
152
153
156
159
160
161
162
164
165
166
167
169
170
173
174
175
176
177
178
179
180
182
183
184
185
186
188
189
